webassembly/ejemplos_dzn/16/folder16_json_55.dzn
TERM = { '.', 's(2)', 's(5)', 'in_1', 'local_0', 'local_1', 'in_2', 'in_4', 'in_3', 's(8)', 's(6)', 's(1)', 's(0)', 's(7)', 's(3)', 'in_0'};
null = '.';
s = 16;
n = 10;
ndeps = 7;
max_registers_sz = 4;
NR = 1;
registers = [|'local_1', 'in_4'|];
dependencies = [|'i32.store_0', 'i32.load16_u_1', |'i32.store_0', 'i32.load_4', |'i32.store_0', 'i32.load16_u_5', |'i32.store_0', 'i32.load16_s_6', |'i32.store_0', 'i32.load_11', |'i32.store_0', 'i32.load8_s_14', |'i32.store_0', 'i32.load8_s_15'|];
GET_ENUM = { GET1, GET2, GET3, GET4, GET5};
SET_ENUM = { SET1, SET2, SET3, SET4, SET5};
TEE_ENUM = { TEE1, TEE2, TEE3, TEE4, TEE5};
N = 10;
OP = { 'i32.store_0', 'i32.load16_u_1', 'i32.load_4', 'i32.load16_u_5', 'i32.load16_s_6', 'i32.load_11', 'i32.const_0', 'i32.load8_s_14', 'i32.load8_s_15', 'local.get_0' };
in_ops = [2, 1, 1, 1, 1, 1, 0, 1, 1, 0 ];
out_ops = [0, 1, 1, 1, 1, 1, 1, 1, 1, 1 ];
in1 = ['in_0', 'in_2', 'local_0', 's(1)', 's(2)', 'in_4', '.', 's(8)', 's(6)', '.' ];
in2 = ['in_1', '.', '.', '.', '.', '.', '.', '.', '.', '.' ];
in3 = ['.', '.', '.', '.', '.', '.', '.', '.', '.', '.' ];
out1 = ['.', 's(0)', 's(1)', 's(2)', 's(3)', 's(5)', 's(8)', 's(6)', 's(7)', 'local_0' ];
out2 = ['.', '.', '.', '.', '.', '.', '.', '.', '.', '.' ];
out3 = ['.', '.', '.', '.', '.', '.', '.', '.', '.', '.' ];
comm = [false, false, false, false, false, false, false, false, false, false ];
gas = [1, 1, 1, 1, 1, 1, 1, 1, 1, 1 ];
sz = [1, 1, 1, 1, 1, 1, 1, 1, 1, 1 ];
stor = [true, false, false, false, false, false, false, false, false, false ];
lb = [ 1, 1, 1, 1, 1, 1, 1, 1, 1, 1 ];
ub = [ 16, 16, 16, 16, 16, 16, 16, 16, 16, 16 ];
startstack = [ 'in_0', 'in_1', 'in_2', 'in_3', 'in_4', null, null, null, null, null ];
endstack = [ 's(7)', 'in_4', 's(5)', null, null, null, null, null, null, null ];
